12
0  34  22  75  11  68  19  44  27  50  38  15
12  0  56  31  70  24  43  66  29  18  55  21
48  17  0  60  33  25  12  71  36  49  22  40
62  45  27  0  58  14  39  53  18  31  65  23
21  67  44  30  0  36  59  12  50  27  18  41
29  13  66  24  42  0  31  57  16  38  22  60
33  52  19  41  25  39  0  48  29  61  14  55
40  28  35  17  56  22  63  0  12  47  20  33
15  61  21  45  32  48  14  29  0  55  36  19
37  20  58  13  49  30  46  21  64  0  28  55
44  31  25  66  18  52  20  37  14  41  0  62
12  55  33  29  41  18  57  21  36  15  49  0